%pal nprocs 4 end
%maxcore 1000
!B3LYP RIJCOSX DEF2-TZVP  DEF2/J OPT FREQ
%geom Constraints
  { C 2:5 C }
  { C 7:10 C }
  { C 11  C }
  { C 11  C }
  { C 14  C }
  { C 25  C }
  { C 30  C }  
end
invertConstraints true 
end
* xyz 0 1
 C                  6.31551245   -5.47413490   -0.14337420
 C                  7.74077445   -5.47413490   -0.14337420
 C                  8.42335245   -4.24188390   -0.14337420
 C                  7.68692545   -3.01710290   -0.14319820
 C                  6.27847745   -3.04211490   -0.14331120
 C                  5.61009745   -4.30093990   -0.14337120
 C                  9.85224445   -4.21650990   -0.14332620
 C                  8.37940245   -1.76696090   -0.14283020
 C                  9.80829945   -1.74157590   -0.14243620
 C                 10.54472045   -2.96635490   -0.14272620
 C                 10.49084945   -0.50931990   -0.14169520
 C                  9.73485045    0.69891910   -0.14154220
 C                  8.36612345    0.67461010   -0.14208320
 C                  7.65350945   -0.55971390   -0.14261920
 C                  6.22914645   -0.61029690   -0.14292920
 C                  5.56583245   -1.80780990   -0.14323520
 H                  4.46555145   -1.84023590   -0.14338620
 H                  5.67300945    0.33964010   -0.14286020
 H                  5.79344545   -6.44321590   -0.14338020
 H                  4.50936145   -4.30759390   -0.14336920
 H                 10.27945845    1.65551510   -0.14103020
 H                  7.78788645    1.61125810   -0.14206420
 C                  8.49675545   -6.68238190   -0.14355720
 C                  9.86550145   -6.65807090   -0.14389720
 C                 10.57812445   -5.42374790   -0.14375220
 H                  7.95217445   -7.63899790   -0.14347220
 H                 10.44372645   -7.59472890   -0.14413620
 C                 12.00249045   -5.37316190   -0.14371920
 C                 12.66580545   -4.17564990   -0.14287520
 C                 11.95315745   -2.94135190   -0.14231820
 H                 12.55862245   -6.32309290   -0.14421620
 H                 13.76608545   -4.14321990   -0.14262520
 C                 11.91611145   -0.50931490   -0.14090220
 H                 12.43817545    0.45978610   -0.13989520
 C                 12.62153445   -1.68251490   -0.14131020
 H                 13.72227445   -1.67583190   -0.14086320
*

